# Node Net
1950   1
1050   1
  5   1
2481   1
550   2
701   2
301   2
 51   2
2479   3
1401   3
1851   3
1500   3
 40   4
850   4
950   4
 32   4
2474   5
  3   5
2456   5
2250   5
2471   6
2476   6
2463   7
1000   7
2462   8
 47   8
1400   9
1450   9
2480  10
2454  10
2464  11
1550  11
901  12
 45  12
2450  13
1101  13
